Academic license - for non-commercial use only
Changed value of parameter TimeLimit to 600.0
   Prev: 1e+100  Min: 0.0  Max: 1e+100  Default: 1e+100
Optimize a model with 804 rows, 162006 columns and 323610 nonzeros
Variable types: 0 continuous, 162006 integer (162006 binary)
Coefficient statistics:
  Matrix range     [1e+00, 8e+03]
  Objective range  [1e+00, 1e+00]
  Bounds range     [1e+00, 1e+00]
  RHS range        [1e+00, 1e+00]
Found heuristic solution: objective 289.0000000
Presolve time: 0.41s
Presolved: 804 rows, 162006 columns, 323610 nonzeros
Variable types: 0 continuous, 162006 integer (162006 binary)

Root relaxation: objective 1.320000e+02, 2336 iterations, 0.35 seconds

    Nodes    |    Current Node    |     Objective Bounds      |     Work
 Expl Unexpl |  Obj  Depth IntInf | Incumbent    BestBd   Gap | It/Node Time

     0     0  132.00000    0  186  289.00000  132.00000  54.3%     -    3s
H    0     0                     160.0000000  132.00000  17.5%     -    3s
H    0     0                     147.0000000  132.00000  10.2%     -    3s
H    0     0                     138.0000000  132.00000  4.35%     -    7s
H    0     0                     137.0000000  132.00000  3.65%     -    7s
     0     0  132.00000    0  286  137.00000  132.00000  3.65%     -    9s
H    0     0                     134.0000000  132.00000  1.49%     -   13s
     0     0  132.00000    0  308  134.00000  132.00000  1.49%     -   13s
     0     0  132.00000    0  219  134.00000  132.00000  1.49%     -   34s
     0     0  132.00000    0  199  134.00000  132.00000  1.49%     -   36s
     0     2  132.00000    0  184  134.00000  132.00000  1.49%     -   63s
     7    14  132.00000    3  240  134.00000  132.00000  1.49%   703   66s
    31    32  132.00000    6  238  134.00000  132.00000  1.49%   561   84s
H   34    35                     133.0000000  132.00000  0.75%   512   84s
    38    39  132.00000    4  199  133.00000  132.00000  0.75%   466   90s
    40    40  132.00000    5  186  133.00000  132.00000  0.75%   443   99s
    41    41  132.00000    6  198  133.00000  132.00000  0.75%   432  158s
    42    42  132.00000    7  287  133.00000  132.00000  0.75%   422  213s
    43    42  132.00000    7  219  133.00000  132.00000  0.75%   412  231s
    44    43  132.00000    4  324  133.00000  132.00000  0.75%   402  241s
    45    44  132.00000    4  225  133.00000  132.00000  0.75%   394  269s
    46    44  132.00000    6  317  133.00000  132.00000  0.75%   385  280s
    47    45  132.00000    5  219  133.00000  132.00000  0.75%   377  300s
    48    46  132.00000    5  297  133.00000  132.00000  0.75%   369  312s
    49    46  132.00000    5  218  133.00000  132.00000  0.75%   361  352s
    50    47  132.00000    5  218  133.00000  132.00000  0.75%   354  356s
    51    48  132.00000    5  218  133.00000  132.00000  0.75%   347  367s
    52    48 infeasible   12       133.00000  132.00000  0.75%  2824  600s

Cutting planes:
  Gomory: 7
  Cover: 147
  Clique: 49
  MIR: 36
  StrongCG: 32
  Flow cover: 57

Explored 53 nodes (194226 simplex iterations) in 600.02 seconds
Thread count was 12 (of 12 available processors)

Solution count 7: 133 134 137 ... 289

Time limit reached
Best objective 1.330000000000e+02, best bound 1.320000000000e+02, gap 0.7519%
y[2]
y[4]
y[6]
y[8]
y[11]
y[12]
y[15]
y[16]
y[19]
y[22]
y[25]
y[26]
y[27]
y[28]
y[33]
y[39]
y[46]
y[47]
y[51]
y[55]
y[57]
y[59]
y[60]
y[63]
y[67]
y[71]
y[72]
y[74]
y[76]
y[77]
y[79]
y[81]
y[82]
y[83]
y[85]
y[87]
y[88]
y[91]
y[94]
y[95]
y[98]
y[99]
y[100]
y[102]
y[107]
y[108]
y[109]
y[118]
y[119]
y[121]
y[126]
y[129]
y[132]
y[133]
y[135]
y[142]
y[145]
y[146]
y[148]
y[150]
y[154]
y[160]
y[161]
y[165]
y[167]
y[169]
y[171]
y[180]
y[184]
y[188]
y[191]
y[194]
y[197]
y[201]
y[205]
y[213]
y[217]
y[219]
y[223]
y[225]
y[227]
y[232]
y[233]
y[234]
y[244]
y[245]
y[246]
y[250]
y[255]
y[257]
y[261]
y[267]
y[268]
y[271]
y[272]
y[276]
y[283]
y[285]
y[290]
y[292]
y[295]
y[302]
y[304]
y[309]
y[310]
y[314]
y[317]
y[319]
y[321]
y[323]
y[324]
y[325]
y[327]
y[335]
y[336]
y[341]
y[350]
y[354]
y[357]
y[360]
y[361]
y[364]
y[368]
y[369]
y[376]
y[382]
y[386]
y[392]
y[393]
y[394]
y[395]
y[398]
y[401]
x[2][106]
x[2][163]
x[2][259]
x[4][83]
x[4][189]
x[4][281]
x[6][88]
x[6][166]
x[8][105]
x[8][147]
x[8][360]
x[11][79]
x[11][172]
x[12][48]
x[12][200]
x[15][9]
x[15][245]
x[16][32]
x[16][224]
x[19][99]
x[19][151]
x[22][31]
x[22][219]
x[25][44]
x[25][205]
x[26][52]
x[26][199]
x[27][51]
x[27][212]
x[27][343]
x[28][119]
x[28][153]
x[28][257]
x[33][70]
x[33][187]
x[33][392]
x[39][60]
x[39][194]
x[46][78]
x[46][176]
x[47][40]
x[47][234]
x[47][371]
x[51][35]
x[51][226]
x[51][376]
x[55][76]
x[55][196]
x[55][293]
x[57][26]
x[57][222]
x[59][4]
x[59][251]
x[60][111]
x[60][143]
x[60][378]
x[63][91]
x[63][192]
x[63][272]
x[67][116]
x[67][156]
x[67][260]
x[71][126]
x[71][155]
x[71][202]
x[72][46]
x[72][216]
x[72][368]
x[74][93]
x[74][161]
x[76][118]
x[76][139]
x[76][314]
x[77][24]
x[77][233]
x[79][41]
x[79][218]
x[79][389]
x[81][80]
x[81][177]
x[82][96]
x[82][165]
x[82][303]
x[83][64]
x[83][206]
x[83][312]
x[85][39]
x[85][231]
x[85][355]
x[87][13]
x[87][239]
x[88][75]
x[88][170]
x[91][3]
x[91][248]
x[94][97]
x[94][157]
x[95][87]
x[95][168]
x[95][388]
x[98][108]
x[98][141]
x[99][23]
x[99][229]
x[100][7]
x[100][250]
x[102][86]
x[102][179]
x[102][307]
x[107][18]
x[107][273]
x[107][291]
x[108][104]
x[108][152]
x[108][339]
x[109][29]
x[109][238]
x[109][383]
x[118][68]
x[118][197]
x[118][310]
x[119][33]
x[119][237]
x[119][345]
x[121][73]
x[121][193]
x[121][317]
x[126][129]
x[126][133]
x[126][270]
x[129][15]
x[129][256]
x[129][364]
x[132][53]
x[132][207]
x[132][359]
x[133][72]
x[133][181]
x[135][43]
x[135][223]
x[135][344]
x[142][1]
x[142][300]
x[142][304]
x[145][19]
x[145][242]
x[145][386]
x[146][82]
x[146][171]
x[148][20]
x[148][264]
x[148][315]
x[150][50]
x[150][201]
x[154][135]
x[154][154]
x[154][173]
x[154][387]
x[160][58]
x[160][204]
x[160][362]
x[161][17]
x[161][269]
x[161][311]
x[165][95]
x[165][160]
x[167][28]
x[167][221]
x[169][92]
x[169][215]
x[169][283]
x[169][284]
x[171][8]
x[171][247]
x[180][110]
x[180][174]
x[180][268]
x[180][298]
x[184][38]
x[184][265]
x[184][279]
x[184][397]
x[188][89]
x[188][195]
x[188][276]
x[188][391]
x[191][56]
x[191][261]
x[191][266]
x[191][382]
x[194][37]
x[194][252]
x[194][299]
x[197][69]
x[197][188]
x[197][350]
x[201][125]
x[201][186]
x[201][198]
x[201][267]
x[205][102]
x[205][159]
x[205][340]
x[213][55]
x[213][203]
x[213][370]
x[217][57]
x[217][211]
x[217][328]
x[219][120]
x[219][148]
x[219][282]
x[219][361]
x[223][27]
x[223][246]
x[223][351]
x[225][11]
x[225][253]
x[225][385]
x[227][65]
x[227][243]
x[227][285]
x[227][313]
x[232][21]
x[232][230]
x[232][400]
x[233][16]
x[233][240]
x[233][395]
x[234][45]
x[234][255]
x[234][286]
x[244][62]
x[244][214]
x[244][305]
x[245][61]
x[245][236]
x[245][277]
x[246][71]
x[246][178]
x[250][85]
x[250][184]
x[250][338]
x[250][390]
x[255][94]
x[255][190]
x[255][294]
x[255][337]
x[257][34]
x[257][241]
x[257][325]
x[261][90]
x[261][169]
x[261][367]
x[261][394]
x[267][123]
x[267][137]
x[267][296]
x[268][30]
x[268][220]
x[271][103]
x[271][149]
x[272][14]
x[272][280]
x[272][323]
x[272][374]
x[276][77]
x[276][183]
x[276][379]
x[283][81]
x[283][227]
x[283][262]
x[283][352]
x[285][134]
x[285][145]
x[285][244]
x[285][287]
x[285][369]
x[290][0]
x[290][292]
x[290][331]
x[292][66]
x[292][263]
x[292][288]
x[292][289]
x[295][59]
x[295][271]
x[295][295]
x[295][297]
x[295][399]
x[302][117]
x[302][140]
x[302][308]
x[302][396]
x[304][6]
x[304][274]
x[304][341]
x[309][128]
x[309][132]
x[309][278]
x[310][144]
x[310][191]
x[310][213]
x[310][217]
x[310][235]
x[314][2]
x[314][320]
x[314][332]
x[314][347]
x[317][113]
x[317][138]
x[319][12]
x[319][258]
x[319][358]
x[321][107]
x[321][146]
x[321][393]
x[323][112]
x[323][167]
x[323][309]
x[323][321]
x[323][334]
x[324][101]
x[324][208]
x[324][232]
x[324][329]
x[325][74]
x[325][180]
x[327][54]
x[327][353]
x[327][357]
x[327][380]
x[327][381]
x[327][384]
x[335][36]
x[335][322]
x[335][330]
x[335][348]
x[335][354]
x[335][365]
x[336][121]
x[336][142]
x[336][327]
x[336][363]
x[341][122]
x[341][131]
x[350][98]
x[350][162]
x[350][302]
x[354][63]
x[354][185]
x[357][10]
x[357][249]
x[360][22]
x[360][275]
x[360][290]
x[361][127]
x[361][130]
x[364][115]
x[364][175]
x[364][210]
x[368][47]
x[368][225]
x[368][318]
x[369][25]
x[369][228]
x[369][401]
x[376][109]
x[376][150]
x[376][306]
x[382][100]
x[382][164]
x[382][316]
x[382][398]
x[386][42]
x[386][209]
x[392][124]
x[392][136]
x[392][326]
x[392][356]
x[393][67]
x[393][182]
x[394][5]
x[394][254]
x[395][84]
x[395][335]
x[395][346]
x[395][349]
x[395][366]
x[395][372]
x[395][373]
x[395][377]
x[398][114]
x[398][158]
x[398][324]
x[398][336]
x[401][49]
x[401][301]
x[401][319]
x[401][333]
x[401][342]
x[401][375]
Obj: 133.0
